outputs/xor_cipher.cnf
p cnf 80 205
-2 -3 -1 0
2 3 -1 0
-2 3 1 0
2 -3 1 0
4 1 -5 0
4 -1 5 0
-4 1 5 0
-4 -1 -5 0
-7 -8 -6 0
7 8 -6 0
-7 8 6 0
7 -8 6 0
9 6 -10 0
9 -6 10 0
-9 6 10 0
-9 -6 -10 0
-12 -13 -11 0
12 13 -11 0
-12 13 11 0
12 -13 11 0
14 11 -15 0
14 -11 15 0
-14 11 15 0
-14 -11 -15 0
-17 -18 -16 0
17 18 -16 0
-17 18 16 0
17 -18 16 0
19 16 -20 0
19 -16 20 0
-19 16 20 0
-19 -16 -20 0
-22 -23 -21 0
22 23 -21 0
-22 23 21 0
22 -23 21 0
24 21 -25 0
24 -21 25 0
-24 21 25 0
-24 -21 -25 0
-27 -28 -26 0
27 28 -26 0
-27 28 26 0
27 -28 26 0
29 26 -30 0
29 -26 30 0
-29 26 30 0
-29 -26 -30 0
-32 -33 -31 0
32 33 -31 0
-32 33 31 0
32 -33 31 0
34 31 -35 0
34 -31 35 0
-34 31 35 0
-34 -31 -35 0
-37 -38 -36 0
37 38 -36 0
-37 38 36 0
37 -38 36 0
39 36 -40 0
39 -36 40 0
-39 36 40 0
-39 -36 -40 0
-1 41 0
1 -41 0
-6 42 0
6 -42 0
-11 43 0
11 -43 0
-16 44 0
16 -44 0
-21 45 0
21 -45 0
-26 46 0
26 -46 0
-31 47 0
31 -47 0
-36 48 0
36 -48 0
-41 49 0
41 -49 0
-42 50 0
42 -50 0
-43 51 0
43 -51 0
-44 52 0
44 -52 0
-45 53 0
45 -53 0
-46 54 0
46 -54 0
-47 55 0
47 -55 0
-48 56 0
48 -56 0
-2 -3 -57 0
2 3 -57 0
-2 3 57 0
2 -3 57 0
-7 -8 -58 0
7 8 -58 0
-7 8 58 0
7 -8 58 0
-12 -13 -59 0
12 13 -59 0
-12 13 59 0
12 -13 59 0
-17 -18 -60 0
17 18 -60 0
-17 18 60 0
17 -18 60 0
-22 -23 -61 0
22 23 -61 0
-22 23 61 0
22 -23 61 0
-27 -28 -62 0
27 28 -62 0
-27 28 62 0
27 -28 62 0
-32 -33 -63 0
32 33 -63 0
-32 33 63 0
32 -33 63 0
-37 -38 -64 0
37 38 -64 0
-37 38 64 0
37 -38 64 0
-5 -57 -65 0
5 57 -65 0
-5 57 65 0
5 -57 65 0
-10 -58 -66 0
10 58 -66 0
-10 58 66 0
10 -58 66 0
-15 -59 -67 0
15 59 -67 0
-15 59 67 0
15 -59 67 0
-20 -60 -68 0
20 60 -68 0
-20 60 68 0
20 -60 68 0
-25 -61 -69 0
25 61 -69 0
-25 61 69 0
25 -61 69 0
-30 -62 -70 0
30 62 -70 0
-30 62 70 0
30 -62 70 0
-35 -63 -71 0
35 63 -71 0
-35 63 71 0
35 -63 71 0
-40 -64 -72 0
40 64 -72 0
-40 64 72 0
40 -64 72 0
-65 73 0
-66 73 0
65 66 -73 0
-67 74 0
-68 74 0
67 68 -74 0
-69 75 0
-70 75 0
69 70 -75 0
-71 76 0
-72 76 0
71 72 -76 0
-73 77 0
-74 77 0
73 74 -77 0
-75 78 0
-76 78 0
75 76 -78 0
-77 79 0
-78 79 0
77 78 -79 0
-79 80 0
79 -80 0
-4 40 0
-40 41 0
-9 -40 0
-9 41 0
-41 42 0
-14 -41 0
-14 42 0
-42 43 0
-19 -42 0
-19 43 0
-43 44 0
-24 -43 0
-24 44 0
-44 45 0
-29 -44 0
-29 45 0
-45 46 0
-34 -45 0
-34 46 0
-39 -46 0
4 9 14 19 24 29 34 39 0
-80 0
